50
    67    10    52    39    45    14    74     7   100    68    71     8    26    19    47    60    60    78    94    94    79    23    99    58    99    96    35    16    78     7    68    47    16    30    56    45    51     4    44    20    63    35    71    99    73    95    65    23    41    21
     6     6     5     7    10     3     2     3     3     8     3     1     1     8     7     8     2     9     1     9     7     8     8    10     1     1     8     3     8     3    10     5     7    10     8     8     6     7     5     8     9     9     1     5     9     1    10     6     3     6
  1898  2899  2024   826  2554  2955  1120  2728  1225  2322  2040  1615  3349  2841  1865   973  3015  1125  1102  1936  1176  1757  1820  2881  1846  3282  1904  2908  1823  1046   966  1438  2418  1678  2365  1687  1772  2617   987  2499  1412  1419   807  1821  1148  1178  2672  1480  3041  1704
